400 760
1 2 2
1 21 5
2 3 4
2 22 2
3 4 2
3 23 2
4 5 2
4 24 5
5 6 3
5 25 3
6 7 1
6 26 1
7 8 5
7 27 4
8 9 3
8 28 3
9 10 1
9 29 2
10 11 1
10 30 5
11 12 5
11 31 2
12 13 3
12 32 3
13 14 5
13 33 2
14 15 2
14 34 4
15 16 2
15 35 5
16 17 1
16 36 1
17 18 3
17 37 1
18 19 3
18 38 5
19 20 1
19 39 2
20 40 5
21 22 3
21 41 5
22 23 2
22 42 5
23 24 1
23 43 1
24 25 1
24 44 3
25 26 3
25 45 2
26 27 4
26 46 2
27 28 5
27 47 4
28 29 1
28 48 2
29 30 2
29 49 5
30 31 2
30 50 1
31 32 2
31 51 5
32 33 5
32 52 4
33 34 5
33 53 1
34 35 4
34 54 5
35 36 2
35 55 2
36 37 5
36 56 4
37 38 1
37 57 2
38 39 2
38 58 3
39 40 3
39 59 3
40 60 4
41 42 2
41 61 2
42 43 2
42 62 2
43 44 1
43 63 4
44 45 4
44 64 3
45 46 5
45 65 5
46 47 1
46 66 2
47 48 1
47 67 4
48 49 3
48 68 1
49 50 1
49 69 1
50 51 2
50 70 2
51 52 5
51 71 4
52 53 2
52 72 1
53 54 5
53 73 1
54 55 2
54 74 1
55 56 2
55 75 1
56 57 4
56 76 3
57 58 4
57 77 1
58 59 1
58 78 5
59 60 4
59 79 2
60 80 2
61 62 5
61 81 2
62 63 2
62 82 2
63 64 5
63 83 2
64 65 1
64 84 1
65 66 1
65 85 5
66 67 2
66 86 5
67 68 3
67 87 4
68 69 1
68 88 3
69 70 5
69 89 3
70 71 2
70 90 4
71 72 3
71 91 1
72 73 1
72 92 1
73 74 3
73 93 2
74 75 2
74 94 2
75 76 2
75 95 2
76 77 2
76 96 1
77 78 2
77 97 1
78 79 2
78 98 2
79 80 4
79 99 1
80 100 3
81 82 1
81 101 3
82 83 4
82 102 3
83 84 4
83 103 2
84 85 1
84 104 2
85 86 3
85 105 1
86 87 4
86 106 1
87 88 2
87 107 1
88 89 1
88 108 4
89 90 4
89 109 1
90 91 1
90 110 3
91 92 4
91 111 1
92 93 5
92 112 5
93 94 3
93 113 4
94 95 1
94 114 3
95 96 5
95 115 1
96 97 1
96 116 2
97 98 1
97 117 3
98 99 4
98 118 4
99 100 5
99 119 4
100 120 4
101 102 2
101 121 3
102 103 3
102 122 1
103 104 1
103 123 3
104 105 3
104 124 2
105 106 4
105 125 3
106 107 5
106 126 2
107 108 5
107 127 4
108 109 1
108 128 1
109 110 2
109 129 3
110 111 3
110 130 5
111 112 3
111 131 5
112 113 5
112 132 2
113 114 3
113 133 1
114 115 4
114 134 3
115 116 3
115 135 5
116 117 1
116 136 4
117 118 2
117 137 3
118 119 2
118 138 2
119 120 4
119 139 5
120 140 2
121 122 5
121 141 1
122 123 3
122 142 1
123 124 2
123 143 2
124 125 1
124 144 4
125 126 5
125 145 5
126 127 4
126 146 1
127 128 4
127 147 3
128 129 4
128 148 2
129 130 2
129 149 2
130 131 5
130 150 3
131 132 2
131 151 2
132 133 1
132 152 1
133 134 5
133 153 4
134 135 1
134 154 3
135 136 4
135 155 5
136 137 5
136 156 4
137 138 2
137 157 3
138 139 3
138 158 5
139 140 3
139 159 2
140 160 5
141 142 5
141 161 5
142 143 1
142 162 1
143 144 2
143 163 4
144 145 3
144 164 4
145 146 2
145 165 4
146 147 1
146 166 4
147 148 2
147 167 5
148 149 2
148 168 2
149 150 1
149 169 3
150 151 1
150 170 1
151 152 1
151 171 4
152 153 4
152 172 1
153 154 3
153 173 4
154 155 2
154 174 2
155 156 1
155 175 2
156 157 3
156 176 3
157 158 3
157 177 3
158 159 4
158 178 3
159 160 1
159 179 2
160 180 1
161 162 4
161 181 1
162 163 3
162 182 2
163 164 1
163 183 5
164 165 5
164 184 5
165 166 3
165 185 3
166 167 2
166 186 1
167 168 3
167 187 3
168 169 5
168 188 1
169 170 1
169 189 3
170 171 1
170 190 4
171 172 2
171 191 1
172 173 3
172 192 5
173 174 5
173 193 2
174 175 4
174 194 5
175 176 1
175 195 3
176 177 2
176 196 2
177 178 2
177 197 5
178 179 5
178 198 5
179 180 3
179 199 2
180 200 5
181 182 1
181 201 1
182 183 3
182 202 1
183 184 4
183 203 1
184 185 4
184 204 5
185 186 4
185 205 3
186 187 2
186 206 3
187 188 4
187 207 2
188 189 1
188 208 1
189 190 4
189 209 2
190 191 1
190 210 4
191 192 3
191 211 2
192 193 4
192 212 2
193 194 1
193 213 5
194 195 1
194 214 5
195 196 1
195 215 2
196 197 2
196 216 2
197 198 2
197 217 3
198 199 4
198 218 1
199 200 3
199 219 2
200 220 5
201 202 1
201 221 1
202 203 5
202 222 2
203 204 3
203 223 1
204 205 3
204 224 5
205 206 3
205 225 1
206 207 4
206 226 5
207 208 1
207 227 4
208 209 4
208 228 4
209 210 5
209 229 2
210 211 5
210 230 5
211 212 3
211 231 3
212 213 5
212 232 4
213 214 2
213 233 3
214 215 2
214 234 2
215 216 5
215 235 5
216 217 1
216 236 4
217 218 2
217 237 5
218 219 3
218 238 2
219 220 5
219 239 2
220 240 4
221 222 5
221 241 2
222 223 2
222 242 4
223 224 1
223 243 3
224 225 1
224 244 4
225 226 3
225 245 3
226 227 3
226 246 2
227 228 5
227 247 5
228 229 1
228 248 1
229 230 2
229 249 1
230 231 2
230 250 5
231 232 2
231 251 1
232 233 1
232 252 2
233 234 3
233 253 1
234 235 1
234 254 1
235 236 2
235 255 2
236 237 1
236 256 3
237 238 4
237 257 1
238 239 1
238 258 5
239 240 5
239 259 5
240 260 2
241 242 5
241 261 1
242 243 4
242 262 2
243 244 3
243 263 4
244 245 4
244 264 5
245 246 1
245 265 4
246 247 1
246 266 1
247 248 4
247 267 2
248 249 3
248 268 3
249 250 3
249 269 4
250 251 1
250 270 3
251 252 5
251 271 1
252 253 5
252 272 5
253 254 2
253 273 4
254 255 3
254 274 2
255 256 3
255 275 2
256 257 4
256 276 4
257 258 1
257 277 3
258 259 5
258 278 3
259 260 5
259 279 3
260 280 4
261 262 4
261 281 1
262 263 2
262 282 4
263 264 4
263 283 4
264 265 5
264 284 2
265 266 2
265 285 2
266 267 3
266 286 4
267 268 4
267 287 3
268 269 1
268 288 1
269 270 1
269 289 4
270 271 4
270 290 1
271 272 5
271 291 1
272 273 3
272 292 2
273 274 4
273 293 3
274 275 3
274 294 1
275 276 5
275 295 3
276 277 2
276 296 4
277 278 3
277 297 4
278 279 3
278 298 4
279 280 1
279 299 3
280 300 4
281 282 1
281 301 3
282 283 5
282 302 2
283 284 4
283 303 5
284 285 2
284 304 1
285 286 2
285 305 4
286 287 3
286 306 4
287 288 1
287 307 5
288 289 1
288 308 1
289 290 4
289 309 3
290 291 3
290 310 3
291 292 5
291 311 2
292 293 5
292 312 2
293 294 2
293 313 1
294 295 4
294 314 5
295 296 4
295 315 1
296 297 4
296 316 1
297 298 4
297 317 4
298 299 2
298 318 4
299 300 1
299 319 1
300 320 5
301 302 5
301 321 3
302 303 3
302 322 3
303 304 2
303 323 1
304 305 3
304 324 3
305 306 2
305 325 1
306 307 5
306 326 3
307 308 2
307 327 5
308 309 3
308 328 1
309 310 5
309 329 1
310 311 1
310 330 4
311 312 2
311 331 4
312 313 5
312 332 2
313 314 5
313 333 3
314 315 2
314 334 2
315 316 2
315 335 5
316 317 2
316 336 3
317 318 2
317 337 4
318 319 5
318 338 4
319 320 4
319 339 3
320 340 1
321 322 1
321 341 3
322 323 1
322 342 1
323 324 2
323 343 2
324 325 2
324 344 2
325 326 1
325 345 5
326 327 5
326 346 5
327 328 3
327 347 3
328 329 3
328 348 2
329 330 1
329 349 1
330 331 3
330 350 1
331 332 1
331 351 4
332 333 3
332 352 2
333 334 3
333 353 5
334 335 1
334 354 1
335 336 3
335 355 1
336 337 3
336 356 5
337 338 1
337 357 2
338 339 5
338 358 2
339 340 4
339 359 1
340 360 3
341 342 2
341 361 4
342 343 4
342 362 3
343 344 3
343 363 1
344 345 5
344 364 5
345 346 2
345 365 4
346 347 5
346 366 5
347 348 4
347 367 5
348 349 3
348 368 1
349 350 4
349 369 2
350 351 4
350 370 5
351 352 3
351 371 3
352 353 3
352 372 5
353 354 2
353 373 1
354 355 1
354 374 3
355 356 4
355 375 5
356 357 2
356 376 5
357 358 1
357 377 2
358 359 4
358 378 4
359 360 4
359 379 3
360 380 4
361 362 3
361 381 1
362 363 1
362 382 3
363 364 4
363 383 3
364 365 5
364 384 4
365 366 1
365 385 4
366 367 3
366 386 4
367 368 4
367 387 4
368 369 4
368 388 3
369 370 3
369 389 3
370 371 1
370 390 4
371 372 5
371 391 5
372 373 4
372 392 1
373 374 3
373 393 2
374 375 4
374 394 1
375 376 4
375 395 2
376 377 1
376 396 4
377 378 2
377 397 5
378 379 1
378 398 2
379 380 1
379 399 1
380 400 1
381 382 3
382 383 3
383 384 1
384 385 5
385 386 4
386 387 2
387 388 2
388 389 2
389 390 1
390 391 2
391 392 2
392 393 4
393 394 1
394 395 5
395 396 3
396 397 1
397 398 4
398 399 3
399 400 4
